SDVRPTW/Cordeau2001/PR10.vrp
NAME: PR10
COMMENT: Based on Cordeau and Laporte (2001).
TYPE: SDVRPTW
EDGE_WEIGHT_TYPE: EUC_2D
DIMENSION: 289
VEHICLES: 30
NODE_COORD_SECTION
1	-2.497	7.199
2	-5.713	17.725
3	38.647	-9.479
4	-38.031	-14.679
5	31.158	-48.444
6	28.027	-35.413
7	18.353	26.764
8	-50.891	61.176
9	0.25	-36.53
10	64.972	-60.602
11	-8.099	-53.857
12	-57.111	5.804
13	20.343	38.843
14	-25.366	28.339
15	-41.962	-1.66
16	-31.512	-31.396
17	-3.204	-39.069
18	12.891	3.247
19	-8.344	29.761
20	23.73	-77.106
21	15.411	-85.101
22	-8.148	-25.415
23	-19.25	18.634
24	48.236	59.326
25	12.048	-22.076
26	43.085	-26.385
27	13.403	41.626
28	28.021	-8.887
29	42.712	45.27
30	13.049	48.462
31	8.478	94.44
32	-57.91	-4.999
33	-24.786	54.529
34	6.555	59.93
35	-24.286	54.797
36	43.561	-60.767
37	-6.708	37.024
38	14.154	8.234
39	21.405	79.81
40	-9.161	0.079
41	-78.955	-14.075
42	49.921	-51.971
43	38.995	24.945
44	-34.729	16.705
45	42.535	12.451
46	-9.766	14.752
47	-87.018	-15.735
48	-8.789	-21.448
49	36.078	35.925
50	39.105	-15.649
51	-14.386	-61.194
52	-14.307	-38.519
53	-70.764	50.854
54	-9.943	-7.458
55	38.434	-60.419
56	-55.542	-28.204
57	60.089	-17.572
58	-56.72	13.538
59	-2.271	-37.628
60	-59.68	-16.437
61	-44.348	-11.981
62	13.849	-45.526
63	-12.494	26.123
64	27.203	28.119
65	-59.143	5.707
66	78.003	-8.386
67	2.765	-14.154
68	17.389	3.278
69	14.069	-22.229
70	-1.782	-64.014
71	13.08	-44.489
72	37.311	30.365
73	-96.143	14.362
74	-43.597	23.92
75	-21.265	10.071
76	-41.327	-19.958
77	-0.165	53.345
78	9.827	-34.778
79	0.702	-2.002
80	18.866	43.915
81	-74.237	-9.357
82	-61.786	-12.103
83	47.583	11.737
84	-3.748	5.109
85	23.206	66.211
86	-45.142	-31.555
87	-12.958	72.906
88	-58.789	-19.824
89	-41.382	-17.096
90	7.367	-40.9
91	-12.866	47.046
92	-56.238	-7.581
93	-54.077	-82.892
94	38.293	7.275
95	-11.774	5.377
96	-18.561	-72.882
97	46.936	42.871
98	-37.939	-24.353
99	-24.475	48.938
100	47.369	25.323
101	21.741	8.856
102	-51.996	78.772
103	-45.032	1.398
104	9.271	51.581
105	-9.369	32.239
106	36.182	95.209
107	25.519	-66.394
108	-51.544	-7.245
109	-1.483	-25.531
110	-16.296	-28.253
111	-40.118	31.744
112	-70.697	30.45
113	2.954	-72.662
114	18.835	-21.552
115	-75.055	-18.445
116	-21.179	-37.701
117	61.011	56.879
118	-19.421	26.886
119	-32.721	3.033
120	-12.347	-4.669
121	20.178	50.519
122	22.406	-22.656
123	-18.652	30.988
124	-19.885	-88.281
125	8.112	-40.57
126	-10.229	-68.457
127	10.144	65.186
128	-5.89	-0.446
129	-90.149	-55.536
130	-32.41	28.625
131	6.433	23.553
132	1.434	-71.667
133	17.23	-33.679
134	-22.675	-90.125
135	-16.077	-19.287
136	2.502	26.849
137	-81.464	-21.259
138	7.642	20.032
139	23.132	50.415
140	-22.9	9.644
141	36.359	38.342
142	83.71	-34.198
143	-0.317	28.333
144	-34.583	-5.542
145	16.376	5.896
146	-24.921	-11.139
147	75.177	-5.115
148	-1.91	-37.811
149	9.57	50.092
150	-49.554	-76.062
151	86.804	-71.698
152	66.113	34.296
153	-12.787	-14.734
154	11.078	-40.088
155	-26.019	36.792
156	-7.916	-5.634
157	-12.793	-10.602
158	12.189	80.023
159	44.794	58.502
160	-72.308	-24.86
161	69.714	0.25
162	-31.018	-18.738
163	7.996	59.747
164	-33.984	-20.026
165	45.416	-58.716
166	-82.99	-6.378
167	-68.787	-80.823
168	-80.621	-5.713
169	30.212	-52.557
170	0.732	54.944
171	-50.092	-41.864
172	-53.699	44.574
173	25.482	-63.043
174	-80.652	14.227
175	28.156	-42.242
176	22.614	34.668
177	-32.666	5.585
178	-70.917	1.385
179	13.55	11.749
180	40.845	31.671
181	72.65	18.707
182	-16.968	-73.547
183	-27.747	12.543
184	-57.648	-19.995
185	13.47	-52.692
186	22.925	-51.392
187	-63.007	19.159
188	74.786	-5.347
189	-14.764	-10.876
190	37.231	12.848
191	-72.626	21.002
192	-45.544	-51.996
193	-37.482	37.079
194	13.245	-35.309
195	37.585	51.349
196	9.57	64.038
197	25.214	52.618
198	25.818	68.225
199	24.31	-57.623
200	-40.601	-34.827
201	17.78	38.727
202	15.045	45.02
203	-18.683	14.941
204	82.605	-27.258
205	51.251	-58.881
206	10.73	38.843
207	23.785	18.103
208	67.444	-77.087
209	-17.383	24.005
210	-48.395	-25.269
211	-34.357	-20.807
212	50.598	3.894
213	9.747	77.747
214	22.711	85.693
215	47.845	56.934
216	-14.441	33.813
217	-45.081	-22.284
218	-47.333	-14.667
219	36.383	69.714
220	23.456	-42.2
221	27.124	81.622
222	-51.141	-39.197
223	-65.607	45.197
224	-45.367	-5.151
225	-34.692	14.728
226	32.324	-71.722
227	30.951	83.569
228	70.19	26.44
229	-61.493	15.594
230	-57.086	-1.965
231	17.487	45.19
232	9.21	-91.73
233	0.836	-86.279
234	-25.256	-24.121
235	25.134	-7.745
236	-11.108	17.065
237	-21.283	10.26
238	-14.868	1.917
239	22.614	9.198
240	-71.71	35.132
241	44.965	-64.453
242	28.406	10.217
243	-76.666	-11.005
244	7.007	-38.861
245	33.008	54.34
246	24.286	65.668
247	35.748	-74.152
248	-34.21	-11.206
249	-29.724	42.725
250	-22.528	16.656
251	9.436	-23.535
252	-12.219	27.203
253	-24.042	0.574
254	33.331	93.042
255	-40.161	5.762
256	-53.4	18.292
257	-11.627	23.56
258	-37.72	-9.546
259	88.824	-7.55
260	14.044	-73.004
261	63.19	8.197
262	-52.759	6.403
263	-20.288	-1.135
264	5.933	-89.929
265	-9.302	20.227
266	-21.13	22.534
267	-30.194	4.852
268	16.174	-33.679
269	-22.827	21.033
270	-64.349	1.05
271	32.709	33.667
272	8.301	-50.592
273	-62.775	-17.865
274	64.294	40.881
275	47.04	48.212
276	23.267	-56.158
277	41.663	30.383
278	-26.556	-21.509
279	-27.429	-27.454
280	-16.553	20.068
281	-35.992	97.54
282	-68.481	-22.961
283	40.35	-46.997
284	66.119	45.239
285	8.087	-0.342
286	27.148	4.492
287	-2.008	-49.054
288	45.154	-69.067
289	13.22	-37.872
DEMAND_SECTION
1	0
2	22
3	8
4	6
5	25
6	10
7	3
8	3
9	9
10	12
11	8
12	5
13	18
14	15
15	22
16	13
17	4
18	8
19	12
20	21
21	1
22	14
23	24
24	21
25	20
26	25
27	9
28	5
29	20
30	14
31	11
32	2
33	2
34	22
35	3
36	19
37	10
38	19
39	24
40	15
41	19
42	12
43	18
44	1
45	25
46	2
47	14
48	24
49	5
50	12
51	2
52	25
53	19
54	24
55	18
56	20
57	17
58	12
59	2
60	19
61	13
62	22
63	19
64	24
65	11
66	6
67	16
68	10
69	11
70	20
71	15
72	16
73	3
74	7
75	6
76	11
77	11
78	14
79	21
80	19
81	4
82	5
83	5
84	12
85	20
86	10
87	20
88	22
89	14
90	19
91	12
92	14
93	24
94	7
95	21
96	23
97	21
98	16
99	10
100	11
101	8
102	3
103	3
104	16
105	1
106	16
107	16
108	20
109	1
110	3
111	5
112	13
113	4
114	1
115	6
116	15
117	21
118	2
119	5
120	13
121	24
122	21
123	15
124	18
125	13
126	10
127	15
128	9
129	13
130	7
131	25
132	9
133	10
134	9
135	15
136	12
137	13
138	9
139	17
140	5
141	6
142	14
143	10
144	5
145	11
146	7
147	20
148	14
149	3
150	18
151	10
152	24
153	12
154	1
155	23
156	9
157	3
158	15
159	16
160	15
161	6
162	10
163	2
164	21
165	17
166	2
167	24
168	23
169	23
170	4
171	5
172	14
173	24
174	4
175	22
176	24
177	13
178	7
179	5
180	3
181	21
182	13
183	7
184	18
185	21
186	10
187	24
188	6
189	11
190	24
191	7
192	16
193	2
194	14
195	23
196	10
197	13
198	4
199	15
200	4
201	19
202	7
203	3
204	8
205	1
206	20
207	20
208	23
209	11
210	17
211	21
212	5
213	16
214	19
215	10
216	24
217	23
218	18
219	23
220	22
221	18
222	24
223	7
224	7
225	15
226	14
227	15
228	8
229	17
230	16
231	10
232	20
233	20
234	9
235	7
236	4
237	11
238	2
239	22
240	21
241	24
242	6
243	1
244	24
245	16
246	5
247	8
248	4
249	10
250	16
251	19
252	12
253	13
254	23
255	25
256	21
257	1
258	21
259	5
260	24
261	24
262	23
263	24
264	10
265	2
266	23
267	23
268	13
269	25
270	4
271	5
272	4
273	20
274	19
275	5
276	2
277	24
278	23
279	20
280	13
281	22
282	24
283	25
284	8
285	2
286	20
287	11
288	1
289	14
SERVICE_TIME_SECTION
1	0
2	16
3	8
4	18
5	11
6	5
7	3
8	18
9	2
10	7
11	4
12	10
13	6
14	23
15	5
16	17
17	25
18	22
19	13
20	22
21	13
22	13
23	19
24	25
25	22
26	9
27	19
28	1
29	17
30	13
31	8
32	18
33	3
34	16
35	21
36	10
37	13
38	13
39	20
40	10
41	7
42	20
43	19
44	5
45	8
46	23
47	18
48	20
49	12
50	19
51	21
52	13
53	20
54	9
55	13
56	18
57	6
58	16
59	1
60	5
61	23
62	18
63	6
64	20
65	15
66	22
67	18
68	19
69	8
70	5
71	21
72	12
73	6
74	24
75	8
76	18
77	10
78	15
79	1
80	7
81	19
82	6
83	8
84	17
85	2
86	14
87	4
88	18
89	21
90	25
91	16
92	16
93	10
94	9
95	7
96	7
97	15
98	9
99	3
100	19
101	4
102	16
103	11
104	17
105	13
106	7
107	13
108	19
109	20
110	6
111	9
112	6
113	13
114	13
115	15
116	3
117	22
118	19
119	10
120	21
121	22
122	4
123	10
124	11
125	14
126	14
127	13
128	25
129	6
130	9
131	4
132	1
133	16
134	16
135	16
136	6
137	20
138	15
139	21
140	3
141	18
142	8
143	5
144	2
145	20
146	6
147	17
148	5
149	2
150	10
151	25
152	14
153	4
154	14
155	9
156	2
157	4
158	4
159	1
160	23
161	6
162	22
163	11
164	9
165	20
166	15
167	9
168	17
169	5
170	11
171	7
172	15
173	23
174	20
175	8
176	10
177	14
178	20
179	20
180	22
181	13
182	18
183	23
184	23
185	25
186	8
187	11
188	21
189	13
190	7
191	24
192	5
193	12
194	9
195	8
196	4
197	24
198	21
199	19
200	20
201	4
202	5
203	3
204	8
205	12
206	14
207	10
208	25
209	22
210	3
211	11
212	20
213	20
214	8
215	19
216	12
217	6
218	21
219	6
220	22
221	14
222	12
223	13
224	9
225	14
226	15
227	22
228	6
229	22
230	10
231	21
232	2
233	3
234	14
235	17
236	13
237	5
238	18
239	18
240	16
241	16
242	17
243	21
244	12
245	23
246	25
247	18
248	1
249	19
250	8
251	16
252	17
253	3
254	15
255	23
256	12
257	19
258	12
259	21
260	18
261	16
262	17
263	1
264	4
265	6
266	9
267	24
268	8
269	22
270	2
271	14
272	7
273	10
274	18
275	14
276	13
277	18
278	6
279	12
280	18
281	3
282	13
283	5
284	19
285	23
286	10
287	25
288	14
289	1
TIME_WINDOW_SECTION
1	0	1000
2	225	327
3	250	355
4	343	506
5	299	447
6	99	268
7	90	256
8	199	354
9	74	198
10	349	444
11	243	402
12	420	550
13	132	266
14	288	455
15	403	541
16	313	462
17	312	458
18	474	635
19	301	449
20	107	253
21	238	365
22	478	583
23	448	564
24	375	467
25	251	421
26	379	474
27	314	436
28	142	316
29	183	298
30	105	240
31	225	315
32	403	522
33	190	297
34	403	508
35	275	407
36	443	611
37	255	354
38	396	517
39	443	561
40	411	514
41	75	196
42	128	249
43	231	410
44	474	582
45	148	271
46	116	230
47	365	537
48	350	486
49	284	409
50	429	529
51	225	379
52	453	572
53	174	307
54	135	255
55	278	370
56	60	178
57	314	486
58	478	629
59	248	389
60	458	610
61	369	464
62	437	570
63	179	329
64	477	623
65	411	540
66	217	333
67	185	280
68	378	478
69	438	562
70	66	234
71	144	245
72	219	319
73	252	416
74	300	446
75	184	324
76	277	384
77	127	281
78	435	553
79	273	387
80	153	279
81	161	306
82	366	473
83	181	340
84	344	494
85	425	582
86	233	373
87	220	393
88	405	536
89	209	337
90	240	387
91	267	359
92	418	582
93	159	326
94	412	572
95	399	515
96	306	480
97	165	282
98	307	413
99	221	375
100	357	520
101	132	277
102	354	519
103	250	367
104	438	582
105	282	384
106	194	371
107	291	438
108	407	504
109	140	234
110	339	495
111	293	468
112	65	214
113	407	586
114	403	533
115	305	428
116	306	458
117	171	270
118	234	412
119	386	542
120	439	543
121	346	480
122	151	308
123	457	605
124	74	232
125	360	537
126	280	451
127	101	191
128	124	245
129	232	343
130	267	360
131	416	575
132	380	540
133	91	222
134	196	296
135	346	464
136	410	507
137	473	573
138	191	364
139	112	284
140	390	483
141	468	593
142	390	553
143	376	540
144	216	318
145	439	594
146	446	610
147	105	246
148	232	405
149	60	237
150	229	338
151	256	408
152	238	387
153	90	245
154	65	184
155	271	439
156	108	234
157	309	413
158	78	246
159	396	521
160	377	510
161	343	451
162	318	458
163	171	262
164	236	352
165	439	534
166	418	516
167	228	331
168	108	245
169	82	181
170	459	601
171	256	397
172	383	537
173	344	456
174	103	220
175	266	380
176	105	211
177	300	438
178	193	353
179	138	311
180	227	353
181	110	220
182	98	224
183	362	501
184	90	240
185	271	377
186	467	575
187	214	360
188	151	255
189	391	544
190	477	583
191	80	224
192	460	586
193	438	588
194	473	647
195	358	514
196	344	446
197	250	345
198	376	524
199	322	440
200	135	262
201	257	431
202	119	254
203	282	396
204	332	446
205	468	618
206	461	590
207	336	439
208	284	432
209	246	393
210	392	505
211	330	463
212	185	335
213	132	246
214	352	457
215	183	320
216	75	203
217	254	385
218	372	523
219	161	280
220	465	640
221	364	487
222	253	418
223	262	373
224	400	557
225	247	388
226	115	282
227	379	537
228	73	216
229	67	212
230	477	581
231	423	584
232	464	618
233	255	429
234	180	338
235	380	487
236	394	519
237	71	174
238	138	317
239	330	493
240	253	422
241	322	476
242	320	471
243	399	560
244	210	369
245	143	322
246	454	602
247	250	373
248	479	626
249	450	598
250	265	408
251	196	367
252	262	368
253	194	323
254	76	197
255	160	286
256	430	573
257	129	254
258	95	232
259	267	391
260	262	392
261	225	348
262	77	213
263	117	213
264	438	609
265	385	560
266	183	355
267	110	203
268	96	205
269	276	431
270	117	226
271	200	302
272	141	297
273	363	453
274	303	394
275	271	444
276	196	306
277	373	535
278	73	206
279	464	583
280	120	259
281	222	340
282	420	533
283	193	354
284	224	382
285	477	626
286	404	559
287	463	618
288	157	295
289	236	332
CAPACITY_SECTION
1	125
2	125
3	125
4	125
5	125
6	150
7	150
8	150
9	150
10	150
11	175
12	175
13	175
14	175
15	175
16	200
17	200
18	200
19	200
20	200
21	225
22	225
23	225
24	225
25	225
26	250
27	250
28	250
29	250
30	250
VEHICLES_MAX_DURATION_SECTION
1	500
2	500
3	500
4	500
5	500
6	500
7	500
8	500
9	500
10	500
11	500
12	500
13	500
14	500
15	500
16	500
17	500
18	500
19	500
20	500
21	500
22	500
23	500
24	500
25	500
26	500
27	500
28	500
29	500
30	500
VEHICLES_ALLOWED_CLIENTS_SECTION
1	2	3	4	5	6	7	8	9	10	11	12	13	14	15	16	17	18	19	20	21	22	23	24	25	26	27	28	29	30	31	32	33	34	35	36	37	38	39	40	41	42	43	44	45	46	47	48	49	50	51	52	53	54	55	56	57	58	59	60	61	62	63	64	65	66	67	68	69	70	71	72	73	76	78	81	85	88	92	93	96	101	102	106	108	109	112	113	115	116	117	118	122	123	124	125	126	134	135	137	138	139	145	150	151	153	157	158	164	165	167	168	174	175	176	177	178	183	186	187	189	190	192	194	195	197	200	201	202	203	205	207	208	210	211	212	214	216	218	220	235	236	237	238	244	254	260	261	264	272	280	285
2	2	3	4	5	6	7	8	9	10	11	12	13	14	15	16	17	18	19	20	21	22	23	24	25	26	27	28	29	30	31	32	33	34	35	36	37	38	39	40	41	42	43	44	45	46	47	48	49	50	51	52	53	54	55	56	57	58	59	60	61	62	63	64	65	66	67	68	69	70	71	72	73	76	78	81	85	88	92	93	96	101	102	106	108	109	112	113	115	116	117	118	122	123	124	125	126	134	135	137	138	139	145	150	151	153	157	158	164	165	167	168	174	175	176	177	178	183	186	187	189	190	192	194	195	197	200	201	202	203	205	207	208	210	211	212	214	216	218	220	235	236	237	238	244	254	260	261	264	272	280	285
3	2	3	4	5	6	7	8	9	10	11	12	13	14	15	16	17	18	19	20	21	22	23	24	25	26	27	28	29	30	31	32	33	34	35	36	37	38	39	40	41	42	43	44	45	46	47	48	49	50	51	52	53	54	55	56	57	58	59	60	61	62	63	64	65	66	67	68	69	70	71	72	73	76	78	81	85	88	92	93	96	101	102	106	108	109	112	113	115	116	117	118	122	123	124	125	126	134	135	137	138	139	145	150	151	153	157	158	164	165	167	168	174	175	176	177	178	183	186	187	189	190	192	194	195	197	200	201	202	203	205	207	208	210	211	212	214	216	218	220	235	236	237	238	244	254	260	261	264	272	280	285
4	2	3	4	5	6	7	8	9	10	11	12	13	14	15	16	17	18	19	20	21	22	23	24	25	26	27	28	29	30	31	32	33	34	35	36	37	38	39	40	41	42	43	44	45	46	47	48	49	50	51	52	53	54	55	56	57	58	59	60	61	62	63	64	65	66	67	68	69	70	71	72	73	76	78	81	85	88	92	93	96	101	102	106	108	109	112	113	115	116	117	118	122	123	124	125	126	134	135	137	138	139	145	150	151	153	157	158	164	165	167	168	174	175	176	177	178	183	186	187	189	190	192	194	195	197	200	201	202	203	205	207	208	210	211	212	214	216	218	220	235	236	237	238	244	254	260	261	264	272	280	285
5	2	3	4	5	6	7	8	9	10	11	12	13	14	15	16	17	18	19	20	21	22	23	24	25	26	27	28	29	30	31	32	33	34	35	36	37	38	39	40	41	42	43	44	45	46	47	48	49	50	51	52	53	54	55	56	57	58	59	60	61	62	63	64	65	66	67	68	69	70	71	72	73	76	78	81	85	88	92	93	96	101	102	106	108	109	112	113	115	116	117	118	122	123	124	125	126	134	135	137	138	139	145	150	151	153	157	158	164	165	167	168	174	175	176	177	178	183	186	187	189	190	192	194	195	197	200	201	202	203	205	207	208	210	211	212	214	216	218	220	235	236	237	238	244	254	260	261	264	272	280	285
6	2	3	4	5	6	7	8	9	10	11	12	13	14	15	16	17	18	19	20	21	22	23	24	25	26	27	28	29	30	31	32	33	34	35	36	37	38	39	40	41	42	43	44	45	46	47	48	49	50	51	52	53	54	55	56	57	58	59	60	61	62	63	64	65	66	67	68	69	70	71	72	73	75	76	77	79	88	91	94	95	96	97	101	102	104	108	109	111	113	114	115	116	117	118	119	121	122	128	133	135	136	138	141	144	145	146	147	151	154	155	157	158	164	167	169	170	171	174	175	176	177	178	179	181	182	183	184	185	186	187	191	192	194	195	196	197	200	202	203	205	206	208	212	216	223	224	228	229	247	269	270	271	276	281
7	2	3	4	5	6	7	8	9	10	11	12	13	14	15	16	17	18	19	20	21	22	23	24	25	26	27	28	29	30	31	32	33	34	35	36	37	38	39	40	41	42	43	44	45	46	47	48	49	50	51	52	53	54	55	56	57	58	59	60	61	62	63	64	65	66	67	68	69	70	71	72	73	75	76	77	79	88	91	94	95	96	97	101	102	104	108	109	111	113	114	115	116	117	118	119	121	122	128	133	135	136	138	141	144	145	146	147	151	154	155	157	158	164	167	169	170	171	174	175	176	177	178	179	181	182	183	184	185	186	187	191	192	194	195	196	197	200	202	203	205	206	208	212	216	223	224	228	229	247	269	270	271	276	281
8	2	3	4	5	6	7	8	9	10	11	12	13	14	15	16	17	18	19	20	21	22	23	24	25	26	27	28	29	30	31	32	33	34	35	36	37	38	39	40	41	42	43	44	45	46	47	48	49	50	51	52	53	54	55	56	57	58	59	60	61	62	63	64	65	66	67	68	69	70	71	72	73	75	76	77	79	88	91	94	95	96	97	101	102	104	108	109	111	113	114	115	116	117	118	119	121	122	128	133	135	136	138	141	144	145	146	147	151	154	155	157	158	164	167	169	170	171	174	175	176	177	178	179	181	182	183	184	185	186	187	191	192	194	195	196	197	200	202	203	205	206	208	212	216	223	224	228	229	247	269	270	271	276	281
9	2	3	4	5	6	7	8	9	10	11	12	13	14	15	16	17	18	19	20	21	22	23	24	25	26	27	28	29	30	31	32	33	34	35	36	37	38	39	40	41	42	43	44	45	46	47	48	49	50	51	52	53	54	55	56	57	58	59	60	61	62	63	64	65	66	67	68	69	70	71	72	73	75	76	77	79	88	91	94	95	96	97	101	102	104	108	109	111	113	114	115	116	117	118	119	121	122	128	133	135	136	138	141	144	145	146	147	151	154	155	157	158	164	167	169	170	171	174	175	176	177	178	179	181	182	183	184	185	186	187	191	192	194	195	196	197	200	202	203	205	206	208	212	216	223	224	228	229	247	269	270	271	276	281
10	2	3	4	5	6	7	8	9	10	11	12	13	14	15	16	17	18	19	20	21	22	23	24	25	26	27	28	29	30	31	32	33	34	35	36	37	38	39	40	41	42	43	44	45	46	47	48	49	50	51	52	53	54	55	56	57	58	59	60	61	62	63	64	65	66	67	68	69	70	71	72	73	75	76	77	79	88	91	94	95	96	97	101	102	104	108	109	111	113	114	115	116	117	118	119	121	122	128	133	135	136	138	141	144	145	146	147	151	154	155	157	158	164	167	169	170	171	174	175	176	177	178	179	181	182	183	184	185	186	187	191	192	194	195	196	197	200	202	203	205	206	208	212	216	223	224	228	229	247	269	270	271	276	281
11	2	3	4	5	6	7	8	9	10	11	12	13	14	15	16	17	18	19	20	21	22	23	24	25	26	27	28	29	30	31	32	33	34	35	36	37	38	39	40	41	42	43	44	45	46	47	48	49	50	51	52	53	54	55	56	57	58	59	60	61	62	63	64	65	66	67	68	69	70	71	72	73	75	77	79	80	82	87	89	90	91	94	95	96	97	98	100	102	103	104	105	107	109	111	113	114	116	117	119	121	122	127	128	131	133	136	141	142	143	144	146	147	149	152	154	155	156	157	158	159	160	162	163	164	167	169	170	171	172	179	181	182	183	184	185	186	187	191	192	194	196	197	198	204	206	209	212	213	216	217	232	233	241	248	251	252	253	259	262	277	278	279	286
12	2	3	4	5	6	7	8	9	10	11	12	13	14	15	16	17	18	19	20	21	22	23	24	25	26	27	28	29	30	31	32	33	34	35	36	37	38	39	40	41	42	43	44	45	46	47	48	49	50	51	52	53	54	55	56	57	58	59	60	61	62	63	64	65	66	67	68	69	70	71	72	73	75	77	79	80	82	87	89	90	91	94	95	96	97	98	100	102	103	104	105	107	109	111	113	114	116	117	119	121	122	127	128	131	133	136	141	142	143	144	146	147	149	152	154	155	156	157	158	159	160	162	163	164	167	169	170	171	172	179	181	182	183	184	185	186	187	191	192	194	196	197	198	204	206	209	212	213	216	217	232	233	241	248	251	252	253	259	262	277	278	279	286
13	2	3	4	5	6	7	8	9	10	11	12	13	14	15	16	17	18	19	20	21	22	23	24	25	26	27	28	29	30	31	32	33	34	35	36	37	38	39	40	41	42	43	44	45	46	47	48	49	50	51	52	53	54	55	56	57	58	59	60	61	62	63	64	65	66	67	68	69	70	71	72	73	75	77	79	80	82	87	89	90	91	94	95	96	97	98	100	102	103	104	105	107	109	111	113	114	116	117	119	121	122	127	128	131	133	136	141	142	143	144	146	147	149	152	154	155	156	157	158	159	160	162	163	164	167	169	170	171	172	179	181	182	183	184	185	186	187	191	192	194	196	197	198	204	206	209	212	213	216	217	232	233	241	248	251	252	253	259	262	277	278	279	286
14	2	3	4	5	6	7	8	9	10	11	12	13	14	15	16	17	18	19	20	21	22	23	24	25	26	27	28	29	30	31	32	33	34	35	36	37	38	39	40	41	42	43	44	45	46	47	48	49	50	51	52	53	54	55	56	57	58	59	60	61	62	63	64	65	66	67	68	69	70	71	72	73	75	77	79	80	82	87	89	90	91	94	95	96	97	98	100	102	103	104	105	107	109	111	113	114	116	117	119	121	122	127	128	131	133	136	141	142	143	144	146	147	149	152	154	155	156	157	158	159	160	162	163	164	167	169	170	171	172	179	181	182	183	184	185	186	187	191	192	194	196	197	198	204	206	209	212	213	216	217	232	233	241	248	251	252	253	259	262	277	278	279	286
15	2	3	4	5	6	7	8	9	10	11	12	13	14	15	16	17	18	19	20	21	22	23	24	25	26	27	28	29	30	31	32	33	34	35	36	37	38	39	40	41	42	43	44	45	46	47	48	49	50	51	52	53	54	55	56	57	58	59	60	61	62	63	64	65	66	67	68	69	70	71	72	73	75	77	79	80	82	87	89	90	91	94	95	96	97	98	100	102	103	104	105	107	109	111	113	114	116	117	119	121	122	127	128	131	133	136	141	142	143	144	146	147	149	152	154	155	156	157	158	159	160	162	163	164	167	169	170	171	172	179	181	182	183	184	185	186	187	191	192	194	196	197	198	204	206	209	212	213	216	217	232	233	241	248	251	252	253	259	262	277	278	279	286
16	2	3	4	5	6	7	8	9	10	11	12	13	14	15	16	17	18	19	20	21	22	23	24	25	26	27	28	29	30	31	32	33	34	35	36	37	38	39	40	41	42	43	44	45	46	47	48	49	50	51	52	53	54	55	56	57	58	59	60	61	62	63	64	65	66	67	68	69	70	71	72	73	74	75	77	79	80	82	83	84	86	87	89	90	91	94	95	97	98	99	100	103	104	105	107	110	111	114	119	120	121	127	128	129	130	131	132	133	136	140	141	142	143	144	146	147	148	149	152	154	155	156	159	160	161	162	163	166	169	170	171	172	173	179	180	181	182	184	185	188	191	193	196	198	199	204	206	209	213	215	217	219	231	234	243	249	255	266	267	283	284	288
17	2	3	4	5	6	7	8	9	10	11	12	13	14	15	16	17	18	19	20	21	22	23	24	25	26	27	28	29	30	31	32	33	34	35	36	37	38	39	40	41	42	43	44	45	46	47	48	49	50	51	52	53	54	55	56	57	58	59	60	61	62	63	64	65	66	67	68	69	70	71	72	73	74	75	77	79	80	82	83	84	86	87	89	90	91	94	95	97	98	99	100	103	104	105	107	110	111	114	119	120	121	127	128	129	130	131	132	133	136	140	141	142	143	144	146	147	148	149	152	154	155	156	159	160	161	162	163	166	169	170	171	172	173	179	180	181	182	184	185	188	191	193	196	198	199	204	206	209	213	215	217	219	231	234	243	249	255	266	267	283	284	288
18	2	3	4	5	6	7	8	9	10	11	12	13	14	15	16	17	18	19	20	21	22	23	24	25	26	27	28	29	30	31	32	33	34	35	36	37	38	39	40	41	42	43	44	45	46	47	48	49	50	51	52	53	54	55	56	57	58	59	60	61	62	63	64	65	66	67	68	69	70	71	72	73	74	75	77	79	80	82	83	84	86	87	89	90	91	94	95	97	98	99	100	103	104	105	107	110	111	114	119	120	121	127	128	129	130	131	132	133	136	140	141	142	143	144	146	147	148	149	152	154	155	156	159	160	161	162	163	166	169	170	171	172	173	179	180	181	182	184	185	188	191	193	196	198	199	204	206	209	213	215	217	219	231	234	243	249	255	266	267	283	284	288
19	2	3	4	5	6	7	8	9	10	11	12	13	14	15	16	17	18	19	20	21	22	23	24	25	26	27	28	29	30	31	32	33	34	35	36	37	38	39	40	41	42	43	44	45	46	47	48	49	50	51	52	53	54	55	56	57	58	59	60	61	62	63	64	65	66	67	68	69	70	71	72	73	74	75	77	79	80	82	83	84	86	87	89	90	91	94	95	97	98	99	100	103	104	105	107	110	111	114	119	120	121	127	128	129	130	131	132	133	136	140	141	142	143	144	146	147	148	149	152	154	155	156	159	160	161	162	163	166	169	170	171	172	173	179	180	181	182	184	185	188	191	193	196	198	199	204	206	209	213	215	217	219	231	234	243	249	255	266	267	283	284	288
20	2	3	4	5	6	7	8	9	10	11	12	13	14	15	16	17	18	19	20	21	22	23	24	25	26	27	28	29	30	31	32	33	34	35	36	37	38	39	40	41	42	43	44	45	46	47	48	49	50	51	52	53	54	55	56	57	58	59	60	61	62	63	64	65	66	67	68	69	70	71	72	73	74	75	77	79	80	82	83	84	86	87	89	90	91	94	95	97	98	99	100	103	104	105	107	110	111	114	119	120	121	127	128	129	130	131	132	133	136	140	141	142	143	144	146	147	148	149	152	154	155	156	159	160	161	162	163	166	169	170	171	172	173	179	180	181	182	184	185	188	191	193	196	198	199	204	206	209	213	215	217	219	231	234	243	249	255	266	267	283	284	288
21	2	3	4	5	6	7	8	9	10	11	12	13	14	15	16	17	18	19	20	21	22	23	24	25	26	27	28	29	30	31	32	33	34	35	36	37	38	39	40	41	42	43	44	45	46	47	48	49	50	51	52	53	54	55	56	57	58	59	60	61	62	63	64	65	66	67	68	69	70	71	72	73	74	78	80	81	82	83	84	85	86	87	89	90	92	93	98	99	100	103	105	106	107	110	112	120	123	124	125	126	127	129	130	131	132	134	137	139	140	142	143	148	149	150	152	153	156	159	160	161	162	163	165	166	168	172	173	180	188	189	190	193	198	199	201	204	207	209	210	211	213	214	215	217	221	222	225	226	227	239	240	242	246	250	257	258	275	282
22	2	3	4	5	6	7	8	9	10	11	12	13	14	15	16	17	18	19	20	21	22	23	24	25	26	27	28	29	30	31	32	33	34	35	36	37	38	39	40	41	42	43	44	45	46	47	48	49	50	51	52	53	54	55	56	57	58	59	60	61	62	63	64	65	66	67	68	69	70	71	72	73	74	78	80	81	82	83	84	85	86	87	89	90	92	93	98	99	100	103	105	106	107	110	112	120	123	124	125	126	127	129	130	131	132	134	137	139	140	142	143	148	149	150	152	153	156	159	160	161	162	163	165	166	168	172	173	180	188	189	190	193	198	199	201	204	207	209	210	211	213	214	215	217	221	222	225	226	227	239	240	242	246	250	257	258	275	282
23	2	3	4	5	6	7	8	9	10	11	12	13	14	15	16	17	18	19	20	21	22	23	24	25	26	27	28	29	30	31	32	33	34	35	36	37	38	39	40	41	42	43	44	45	46	47	48	49	50	51	52	53	54	55	56	57	58	59	60	61	62	63	64	65	66	67	68	69	70	71	72	73	74	78	80	81	82	83	84	85	86	87	89	90	92	93	98	99	100	103	105	106	107	110	112	120	123	124	125	126	127	129	130	131	132	134	137	139	140	142	143	148	149	150	152	153	156	159	160	161	162	163	165	166	168	172	173	180	188	189	190	193	198	199	201	204	207	209	210	211	213	214	215	217	221	222	225	226	227	239	240	242	246	250	257	258	275	282
24	2	3	4	5	6	7	8	9	10	11	12	13	14	15	16	17	18	19	20	21	22	23	24	25	26	27	28	29	30	31	32	33	34	35	36	37	38	39	40	41	42	43	44	45	46	47	48	49	50	51	52	53	54	55	56	57	58	59	60	61	62	63	64	65	66	67	68	69	70	71	72	73	74	78	80	81	82	83	84	85	86	87	89	90	92	93	98	99	100	103	105	106	107	110	112	120	123	124	125	126	127	129	130	131	132	134	137	139	140	142	143	148	149	150	152	153	156	159	160	161	162	163	165	166	168	172	173	180	188	189	190	193	198	199	201	204	207	209	210	211	213	214	215	217	221	222	225	226	227	239	240	242	246	250	257	258	275	282
25	2	3	4	5	6	7	8	9	10	11	12	13	14	15	16	17	18	19	20	21	22	23	24	25	26	27	28	29	30	31	32	33	34	35	36	37	38	39	40	41	42	43	44	45	46	47	48	49	50	51	52	53	54	55	56	57	58	59	60	61	62	63	64	65	66	67	68	69	70	71	72	73	74	78	80	81	82	83	84	85	86	87	89	90	92	93	98	99	100	103	105	106	107	110	112	120	123	124	125	126	127	129	130	131	132	134	137	139	140	142	143	148	149	150	152	153	156	159	160	161	162	163	165	166	168	172	173	180	188	189	190	193	198	199	201	204	207	209	210	211	213	214	215	217	221	222	225	226	227	239	240	242	246	250	257	258	275	282
26	2	3	4	5	6	7	8	9	10	11	12	13	14	15	16	17	18	19	20	21	22	23	24	25	26	27	28	29	30	31	32	33	34	35	36	37	38	39	40	41	42	43	44	45	46	47	48	49	50	51	52	53	54	55	56	57	58	59	60	61	62	63	64	65	66	67	68	69	70	71	72	73	74	76	78	81	83	84	85	86	88	92	93	99	101	106	108	110	112	115	118	120	123	124	125	126	129	130	132	134	135	137	138	139	140	145	148	150	151	153	161	165	166	168	173	174	175	176	177	178	180	188	189	190	193	195	199	200	201	202	203	205	207	208	210	211	214	215	230	245	256	263	265	268	273	274	287	289
27	2	3	4	5	6	7	8	9	10	11	12	13	14	15	16	17	18	19	20	21	22	23	24	25	26	27	28	29	30	31	32	33	34	35	36	37	38	39	40	41	42	43	44	45	46	47	48	49	50	51	52	53	54	55	56	57	58	59	60	61	62	63	64	65	66	67	68	69	70	71	72	73	74	76	78	81	83	84	85	86	88	92	93	99	101	106	108	110	112	115	118	120	123	124	125	126	129	130	132	134	135	137	138	139	140	145	148	150	151	153	161	165	166	168	173	174	175	176	177	178	180	188	189	190	193	195	199	200	201	202	203	205	207	208	210	211	214	215	230	245	256	263	265	268	273	274	287	289
28	2	3	4	5	6	7	8	9	10	11	12	13	14	15	16	17	18	19	20	21	22	23	24	25	26	27	28	29	30	31	32	33	34	35	36	37	38	39	40	41	42	43	44	45	46	47	48	49	50	51	52	53	54	55	56	57	58	59	60	61	62	63	64	65	66	67	68	69	70	71	72	73	74	76	78	81	83	84	85	86	88	92	93	99	101	106	108	110	112	115	118	120	123	124	125	126	129	130	132	134	135	137	138	139	140	145	148	150	151	153	161	165	166	168	173	174	175	176	177	178	180	188	189	190	193	195	199	200	201	202	203	205	207	208	210	211	214	215	230	245	256	263	265	268	273	274	287	289
29	2	3	4	5	6	7	8	9	10	11	12	13	14	15	16	17	18	19	20	21	22	23	24	25	26	27	28	29	30	31	32	33	34	35	36	37	38	39	40	41	42	43	44	45	46	47	48	49	50	51	52	53	54	55	56	57	58	59	60	61	62	63	64	65	66	67	68	69	70	71	72	73	74	76	78	81	83	84	85	86	88	92	93	99	101	106	108	110	112	115	118	120	123	124	125	126	129	130	132	134	135	137	138	139	140	145	148	150	151	153	161	165	166	168	173	174	175	176	177	178	180	188	189	190	193	195	199	200	201	202	203	205	207	208	210	211	214	215	230	245	256	263	265	268	273	274	287	289
30	2	3	4	5	6	7	8	9	10	11	12	13	14	15	16	17	18	19	20	21	22	23	24	25	26	27	28	29	30	31	32	33	34	35	36	37	38	39	40	41	42	43	44	45	46	47	48	49	50	51	52	53	54	55	56	57	58	59	60	61	62	63	64	65	66	67	68	69	70	71	72	73	74	76	78	81	83	84	85	86	88	92	93	99	101	106	108	110	112	115	118	120	123	124	125	126	129	130	132	134	135	137	138	139	140	145	148	150	151	153	161	165	166	168	173	174	175	176	177	178	180	188	189	190	193	195	199	200	201	202	203	205	207	208	210	211	214	215	230	245	256	263	265	268	273	274	287	289
EOF
