SDVRPTW/PR10.sol
Route #1: 100 260 2 27 234 67 17
Route #2: 201 157 253 105 30 196 200 137
Route #3: 66 108 58 243 271 259 20 263 164 219 284
Route #4: 279 236 237 163 199 75 217 176 182 235
Route #5:
Route #6: 228 190 173 177 269 186 222 52 7 110 268 22
Route #7: 62 215 90 280 101 154 13
Route #8: 180 227 116 96 48 270 63
Route #9: 8 153 70 275 246 207 150 9 204 35 185 61 193
Route #10: 78 156 134 3 60 223 14 118 94
Route #11: 178 211 146 65 258 203 141 56 25 49 113 68
Route #12: 277 69 181 95 50 10 115 15 161 247 145
Route #13: 127 252 74 208 251 18 104 36 26 120 140 276 93 285
Route #14: 261 183 55 170 166 191 278
Route #15: 250 24 121 240 106 232 231 112 51
Route #16: 76 162 126 212 218 283 151 99 42 135 142
Route #17: 266 254 143 88 233 97 85 216 81 242 64 171 192 248
Route #18: 45 265 98 32 34 86 195 33 169 103 230 205 130
Route #19: 132 5 168 282 41 287 54 184 89 147 16 109 47 39
Route #20:
Route #21: 44 82 187 160 241 206 238 37
Route #22: 256 148 29 79 28 274 214 158 226 213 220 38 197 245 84
Route #23: 225 19 123 133 149 92 128 221 209 210 188 119
Route #24: 111 239 72 165 46 136 159 281 59 91
Route #25: 155 53 152 257 102 224 73 129 249 139 83
Route #26: 262 40 167 80 114 272 87 107 31 229 11 57 255 43
Route #27: 1 202 117 122 264
Route #28: 267 288 174 4 198 172 131 125 286 124 77 21
Route #29: 6 175 12 138 244 71 179 273 23 194 189 144
Route #30:
Cost: 5866396
